Optimal - objective value -355.00000000
      0 x_0                    1                     -82
      1 x_1                    0                     -15
      2 x_2                    0                      -4
      3 x_3                    1                     -95
      4 x_4                    1                     -36
      5 x_5                    0                      38
      6 x_6                    0                     -29
      7 x_7                    0                     -18
      8 x_8                    0                     -25
      9 x_9                    0                     -14
     10 x_10                   1                     -17
     11 x_11                   0                     -25
     12 x_12                   0                       0
     13 x_13                   0                     -12
     14 x_14                   0                      -6
     15 x_15                   1                     -55
     16 x_16                   0                      65
     17 x_17                   0                      66
     18 x_18                   0                     -12
     19 x_19                   0                     -28
     20 x_20                   0                     -30
     21 x_21                   0                     -65
     22 x_22                   0                      -8
     23 x_23                   0                      -4
     24 x_24                   0                     -72
